;; produced by z3_gnatprove.drv ;;
(set-info :smt-lib-version 2.5)
(set-info :source |VC generated by SPARK 2014|)
(set-info :category industrial)
(set-info :status unknown)
;;; generated by SMT-LIB2 driver
;;; SMT-LIB2 driver: bit-vectors, common part
;;; SMT-LIB2: integer arithmetic
(declare-sort string 0)

(declare-datatypes () ((tuple0 (Tuple0))))
(declare-sort us_private 0)

(declare-fun private__bool_eq (us_private us_private) Bool)

(declare-const us_null_ext__ us_private)

(declare-sort us_type_of_heap 0)

(declare-datatypes ()
((us_type_of_heap__ref
 (us_type_of_heap__refqtmk (us_type_of_heap__content us_type_of_heap)))))
(declare-sort us_image 0)

(declare-datatypes () ((int__ref (int__refqtmk (int__content Int)))))
(declare-datatypes () ((bool__ref (bool__refqtmk (bool__content Bool)))))
(declare-datatypes ()
((us_fixed__ref (us_fixed__refqtmk (us_fixed__content Int)))))
(declare-datatypes () ((real__ref (real__refqtmk (real__content Real)))))
(declare-datatypes ()
((us_private__ref (us_private__refqtmk (us_private__content us_private)))))
(define-fun int__ref___projection ((a int__ref)) Int (int__content a))

(define-fun us_fixed__ref___projection ((a us_fixed__ref)) Int (us_fixed__content
                                                               a))

(define-fun bool__ref___projection ((a bool__ref)) Bool (bool__content a))

(define-fun real__ref___projection ((a real__ref)) Real (real__content a))

(define-fun us_private__ref___projection ((a us_private__ref)) us_private 
  (us_private__content a))

(define-fun abs1 ((x Int)) Int (ite (<= 0 x) x (- x)))

;; Abs_le
  (assert
  (forall ((x Int) (y Int)) (= (<= (abs1 x) y) (and (<= (- y) x) (<= x y)))))

;; Abs_pos
  (assert (forall ((x Int)) (<= 0 (abs1 x))))

(declare-fun div1 (Int Int) Int)

(declare-fun mod1 (Int Int) Int)

;; Div_mod
  (assert
  (forall ((x Int) (y Int))
  (=> (not (= y 0)) (= x (+ (* y (div1 x y)) (mod1 x y))))))

;; Div_bound
  (assert
  (forall ((x Int) (y Int))
  (=> (and (<= 0 x) (< 0 y)) (and (<= 0 (div1 x y)) (<= (div1 x y) x)))))

;; Mod_bound
  (assert
  (forall ((x Int) (y Int))
  (=> (not (= y 0))
  (and (< (- (abs1 y)) (mod1 x y)) (< (mod1 x y) (abs1 y))))))

;; Div_sign_pos
  (assert
  (forall ((x Int) (y Int)) (=> (and (<= 0 x) (< 0 y)) (<= 0 (div1 x y)))))

;; Div_sign_neg
  (assert
  (forall ((x Int) (y Int)) (=> (and (<= x 0) (< 0 y)) (<= (div1 x y) 0))))

;; Mod_sign_pos
  (assert
  (forall ((x Int) (y Int))
  (=> (and (<= 0 x) (not (= y 0))) (<= 0 (mod1 x y)))))

;; Mod_sign_neg
  (assert
  (forall ((x Int) (y Int))
  (=> (and (<= x 0) (not (= y 0))) (<= (mod1 x y) 0))))

;; Rounds_toward_zero
  (assert
  (forall ((x Int) (y Int))
  (=> (not (= y 0)) (<= (abs1 (* (div1 x y) y)) (abs1 x)))))

;; Div_1
  (assert (forall ((x Int)) (= (div1 x 1) x)))

;; Mod_1
  (assert (forall ((x Int)) (= (mod1 x 1) 0)))

;; Div_inf
  (assert
  (forall ((x Int) (y Int)) (=> (and (<= 0 x) (< x y)) (= (div1 x y) 0))))

;; Mod_inf
  (assert
  (forall ((x Int) (y Int)) (=> (and (<= 0 x) (< x y)) (= (mod1 x y) x))))

;; Div_mult
  (assert
  (forall ((x Int) (y Int) (z Int))
  (! (=> (and (< 0 x) (and (<= 0 y) (<= 0 z)))
     (= (div1 (+ (* x y) z) x) (+ y (div1 z x)))) :pattern ((div1
                                                            (+ (* x y) z) x)) )))

;; Mod_mult
  (assert
  (forall ((x Int) (y Int) (z Int))
  (! (=> (and (< 0 x) (and (<= 0 y) (<= 0 z)))
     (= (mod1 (+ (* x y) z) x) (mod1 z x))) :pattern ((mod1 (+ (* x y) z) x)) )))

(define-fun mod2 ((x Int)
  (y Int)) Int (ite (< 0 y) (mod x y) (+ (mod x y) y)))

(declare-sort integer 0)

(declare-fun integerqtint (integer) Int)

;; integer'axiom
  (assert
  (forall ((i integer))
  (and (<= (- 2147483648) (integerqtint i)) (<= (integerqtint i) 2147483647))))

(define-fun in_range ((x Int)) Bool (and (<= (- 2147483648) x)
                                    (<= x 2147483647)))

(declare-fun attr__ATTRIBUTE_IMAGE (Int) us_image)

(declare-fun attr__ATTRIBUTE_VALUE__pre_check (us_image) Bool)

(declare-fun attr__ATTRIBUTE_VALUE (us_image) Int)

(declare-fun user_eq (integer integer) Bool)

(declare-const dummy integer)

(declare-datatypes ()
((integer__ref (integer__refqtmk (integer__content integer)))))
(define-fun integer__ref_integer__content__projection ((a integer__ref)) integer 
  (integer__content a))

(define-fun dynamic_invariant ((temp___expr_18 Int) (temp___is_init_14 Bool)
  (temp___skip_constant_15 Bool) (temp___do_toplevel_16 Bool)
  (temp___do_typ_inv_17 Bool)) Bool (=>
                                    (or (= temp___is_init_14 true)
                                    (<= (- 2147483648) 2147483647)) (in_range
                                    temp___expr_18)))

(declare-const op Int)

(declare-const attr__ATTRIBUTE_ADDRESS Int)

(declare-const x Int)

(declare-const attr__ATTRIBUTE_ADDRESS1 Int)

(declare-const y Int)

(declare-const attr__ATTRIBUTE_ADDRESS2 Int)

(declare-const attr__ATTRIBUTE_ADDRESS3 Int)

(declare-sort oper 0)

(define-fun in_range1 ((x1 Int)) Bool (and (<= 0 x1) (<= x1 2)))

(declare-fun attr__ATTRIBUTE_IMAGE1 (Int) us_image)

(declare-fun attr__ATTRIBUTE_VALUE__pre_check1 (us_image) Bool)

(declare-fun attr__ATTRIBUTE_VALUE1 (us_image) Int)

(declare-fun user_eq1 (oper oper) Bool)

(declare-const dummy1 oper)

(declare-datatypes () ((oper__ref (oper__refqtmk (oper__content oper)))))
(define-fun oper__ref_oper__content__projection ((a oper__ref)) oper 
  (oper__content a))

(define-fun dynamic_invariant1 ((temp___expr_179 Int)
  (temp___is_init_175 Bool) (temp___skip_constant_176 Bool)
  (temp___do_toplevel_177 Bool)
  (temp___do_typ_inv_178 Bool)) Bool (=>
                                     (or (= temp___is_init_175 true)
                                     (<= 0 2)) (in_range1 temp___expr_179)))

(declare-const u Int)

;; Assume
  (assert (dynamic_invariant1 op true false true true))

;; Assume
  (assert (dynamic_invariant x true false true true))

;; Assume
  (assert (dynamic_invariant y true false true true))

;; Assume
  (assert (dynamic_invariant u false false true true))

(declare-const spark__branch Bool)

;; H
  (assert (= spark__branch (ite (= op 0) true false)))

;; H
  (assert (not (= spark__branch true)))

(declare-const spark__branch1 Bool)

;; H
  (assert (= spark__branch1 (ite (= op 1) true false)))

;; H
  (assert (not (= spark__branch1 true)))

(assert
;; defqtvc
 ;; File "division_by_zero.adb", line 9, characters 0-0
  (not (not (= y 0))))
(check-sat)
